Problem:    
Rows:       256
Columns:    89 (72 integer, 72 binary)
Non-zeros:  800
Status:     INTEGER OPTIMAL
Objective:  value = 84.497544 (MINimum)

   No.   Row name        Activity     Lower bound   Upper bound
------ ------------    ------------- ------------- -------------
     1 r.5                    1084.5             0               
     2 r.6                  -961.868      -980.588               
     3 r.7                   84.4975             0               
     4 r.8                   38.1324      -978.016               
     5 r.9                   84.4975             0               
     6 r.10                   61.298      -979.414               
     7 r.11                   1084.5             0               
     8 r.12                 -982.535      -983.007               
     9 r.13                  84.4975             0               
    10 r.14                   61.298      -964.514               
    11 r.15                   1084.5             0               
    12 r.16                 -938.702      -969.712               
    13 r.17                   1084.5             0               
    14 r.18                 -981.772      -982.243               
    15 r.19                  84.4975             0               
    16 r.20                  31.0099      -981.124               
    17 r.21                  84.4975             0               
    18 r.22                  38.1324      -982.933               
    19 r.23                   1084.5             0               
    20 r.24                  -968.99      -986.455               
    21 r.25                   1084.5             0               
    22 r.26                 -999.528      -999.528               
    23 r.27                  84.4975             0               
    24 r.28                   0.4716      -992.972               
    25 r.29                   1084.5             0               
    26 r.30                 -915.502      -953.635               
    27 r.31                  84.4975             0               
    28 r.32                 -937.415      -975.547               
    29 r.33                  84.4975             0               
    30 r.34                  84.4975      -954.031               
    31 r.35                   1084.5             0               
    32 r.36                 -915.502        -976.8               
    33 r.37                        1             1             = 
    34 r.38                        1             1             = 
    35 r.39                        1             1             = 
    36 r.40                        1             1             = 
    37 r.41                        1             1             = 
    38 r.42                        1             1             = 
    39 r.43                        1             1             = 
    40 r.44                        1             1             = 
    41 r.45                     1001             2               
    42 r.46                    -1001         -1001               
    43 r.47                  2023.17      -979.414               
    44 r.48                     1001             2               
    45 r.49                    -1001         -1001               
    46 r.50                  1979.33      -983.007               
    47 r.51                     1001             2               
    48 r.52                    -1001         -1001               
    49 r.53                  2023.17      -964.514               
    50 r.54                     1001             2               
    51 r.55                    -1001         -1001               
    52 r.56                  2023.17      -969.712               
    53 r.57                        2             2               
    54 r.58                       -2         -1001               
    55 r.59                  -19.904      -982.243               
    56 r.60                     1000             2               
    57 r.61                    -1000         -1001               
    58 r.62                  1992.88      -981.124               
    59 r.63                     1001             2               
    60 r.64                    -1001         -1001               
    61 r.65                     2000      -982.933               
    62 r.66                     1001             2               
    63 r.67                    -1001         -1001               
    64 r.68                  1992.88      -986.455               
    65 r.69                 -962.339      -980.588               
    66 r.70                  37.6608      -978.016               
    67 r.71                 -962.339      -980.588               
    68 r.72                  37.6608      -978.016               
    69 r.73                 -953.635      -953.635               
    70 r.74                 -975.547      -975.547               
    71 r.75                 -953.635      -953.635               
    72 r.76                 -975.547      -975.547               
    73 r.77                     1001             2               
    74 r.78                    -1001         -1001               
    75 r.79                  2046.37      -954.031               
    76 r.80                     1001             2               
    77 r.81                    -1001         -1001               
    78 r.82                  2046.37        -976.8               
    79 r.83                     1001             2               
    80 r.84                    -1001         -1001               
    81 r.85                  1976.83       19.4118               
    82 r.86                     1001             2               
    83 r.87                    -1001         -1001               
    84 r.88                  2020.67        21.984               
    85 r.89                     1000             2               
    86 r.90                    -1000         -1001               
    87 r.91                     2000      -964.514               
    88 r.92                        2             2               
    89 r.93                       -2         -1001               
    90 r.94                 -956.167      -969.712               
    91 r.95                     1001             2               
    92 r.96                    -1001         -1001               
    93 r.97                  1956.93      -982.243               
    94 r.98                     1001             2               
    95 r.99                    -1001         -1001               
    96 r.100                 2013.55      -981.124               
    97 r.101                    1000             2               
    98 r.102                   -1000         -1001               
    99 r.103                 1976.83      -982.933               
   100 r.104                       2             2               
   101 r.105                      -2         -1001               
   102 r.106                -986.455      -986.455               
   103 r.107                 60.8264      -979.414               
   104 r.108                -983.007      -983.007               
   105 r.109                 60.8264      -979.414               
   106 r.110                -983.007      -983.007               
   107 r.111                    1001             2               
   108 r.112                   -1001         -1001               
   109 r.113                  2023.2      -953.635               
   110 r.114                    1001             2               
   111 r.115                   -1001         -1001               
   112 r.116                 1045.12      -975.547               
   113 r.117                 23.1995      -954.031               
   114 r.118                  -976.8        -976.8               
   115 r.119                 67.0329      -954.031               
   116 r.120                -932.967        -976.8               
   117 r.121                    1001             2               
   118 r.122                   -1001         -1001               
   119 r.123                 1976.83       19.4118               
   120 r.124                    1001             2               
   121 r.125                   -1001         -1001               
   122 r.126                 1976.83        21.984               
   123 r.127                    1000             2               
   124 r.128                   -1000         -1001               
   125 r.129                    2000       20.5865               
   126 r.130                       2             2               
   127 r.131                      -2         -1001               
   128 r.132                 956.167        16.993               
   129 r.133                 43.0696      -964.514               
   130 r.134                 -956.93      -969.712               
   131 r.135                 30.2881      -964.514               
   132 r.136                -969.712      -969.712               
   133 r.137                    1000             2               
   134 r.138                   -1000         -1001               
   135 r.139                 1976.83      -982.933               
   136 r.140                       2             2               
   137 r.141                      -2         -1001               
   138 r.142                -30.2881      -986.455               
   139 r.143                 60.8264      -964.514               
   140 r.144                -939.174      -969.712               
   141 r.145                 60.8264      -964.514               
   142 r.146                -939.174      -969.712               
   143 r.147                    1001             2               
   144 r.148                   -1001         -1001               
   145 r.149                  2023.2      -953.635               
   146 r.150                    1001             2               
   147 r.151                   -1001         -1001               
   148 r.152                 1001.29      -975.547               
   149 r.153                 23.1995      -954.031               
   150 r.154                  -976.8        -976.8               
   151 r.155                 23.1995      -954.031               
   152 r.156                  -976.8        -976.8               
   153 r.157                       2             2               
   154 r.158                      -2         -1001               
   155 r.159                  19.904       19.4118               
   156 r.160                    1000             2               
   157 r.161                   -1000         -1001               
   158 r.162                 2007.12        21.984               
   159 r.163                    1001             2               
   160 r.164                   -1001         -1001               
   161 r.165                 2043.07       20.5865               
   162 r.166                    1001             2               
   163 r.167                   -1001         -1001               
   164 r.168                 1986.45        16.993               
   165 r.169                    1001             2               
   166 r.170                   -1001         -1001               
   167 r.171                  2019.9      -982.933               
   168 r.172                    1001             2               
   169 r.173                   -1001         -1001               
   170 r.174                    2000      -986.455               
   171 r.175                -982.243      -982.243               
   172 r.176                 30.5383      -981.124               
   173 r.177                -982.243      -982.243               
   174 r.178                 30.5383      -981.124               
   175 r.179                       2             2               
   176 r.180                      -2         -1001               
   177 r.181                -933.731      -953.635               
   178 r.182                    1000             2               
   179 r.183                   -1000         -1001               
   180 r.184                 1031.58      -975.547               
   181 r.185                 66.2691      -954.031               
   182 r.186                -933.731        -976.8               
   183 r.187                 53.4876      -954.031               
   184 r.188                -946.512        -976.8               
   185 r.189                    1001             2               
   186 r.190                   -1001         -1001               
   187 r.191                    2000       19.4118               
   188 r.192                    1001             2               
   189 r.193                   -1001         -1001               
   190 r.194                 2007.12        21.984               
   191 r.195                    1000             2               
   192 r.196                   -1000         -1001               
   193 r.197                 2023.17       20.5865               
   194 r.198                       2             2               
   195 r.199                      -2         -1001               
   196 r.200                 986.455        16.993               
   197 r.201                    1000             2               
   198 r.202                   -1000         -1001               
   199 r.203                 2023.17       35.4856               
   200 r.204                       2             2               
   201 r.205                      -2         -1001               
   202 r.206                 30.2881       30.2881               
   203 r.207                    1001             2               
   204 r.208                   -1001         -1001               
   205 r.209                  1980.1       17.7568               
   206 r.210                    1001             2               
   207 r.211                   -1001         -1001               
   208 r.212                    2000       18.8763               
   209 r.213                 37.6608      -982.933               
   210 r.214                -969.462      -986.455               
   211 r.215                 37.6608      -982.933               
   212 r.216                -969.462      -986.455               
   213 r.217                -953.635      -953.635               
   214 r.218                -975.547      -975.547               
   215 r.219                -946.512      -953.635               
   216 r.220                -968.425      -975.547               
   217 r.221                 46.3651      -954.031               
   218 r.222                -953.635        -976.8               
   219 r.223                 53.4876      -954.031               
   220 r.224                -946.512        -976.8               
   221 r.225                    1001             2               
   222 r.226                   -1001         -1001               
   223 r.227                  1976.8       20.5865               
   224 r.228                    1001             2               
   225 r.229                   -1001         -1001               
   226 r.230                 2954.88        16.993               
   227 r.231                    1001             2               
   228 r.232                   -1001         -1001               
   229 r.233                  1976.8       35.4856               
   230 r.234                    1001             2               
   231 r.235                   -1001         -1001               
   232 r.236                 2998.71       30.2881               
   233 r.237                       2             2               
   234 r.238                      -2         -1001               
   235 r.239                 933.731       17.7568               
   236 r.240                    1000             2               
   237 r.241                   -1000         -1001               
   238 r.242                 2968.42       18.8763               
   239 r.243                    1001             2               
   240 r.244                   -1001         -1001               
   241 r.245                    2000      -954.031               
   242 r.246                    1001             2               
   243 r.247                   -1001         -1001               
   244 r.248                 3021.91        -976.8               
   245 r.249                    1001             2               
   246 r.250                   -1001         -1001               
   247 r.251                 1953.63       19.4118               
   248 r.252                    1001             2               
   249 r.253                   -1001         -1001               
   250 r.254                 1953.63        21.984               
   251 r.255                    1001             2               
   252 r.256                   -1001         -1001               
   253 r.257                    2000       46.3651               
   254 r.258                    1001             2               
   255 r.259                   -1001         -1001               
   256 r.260                 978.088       24.4528               

   No. Column name       Activity     Lower bound   Upper bound
------ ------------    ------------- ------------- -------------
     1 tt                    84.4975             0               
     2 s_1_1        *              1             0             1 
     3 t_1_1                 46.3651             0               
     4 s_2_1        *              0             0             1 
     5 t_2_1                 46.3651             0               
     6 s_1_2        *              0             0             1 
     7 t_1_2                 23.1995             0               
     8 s_2_2        *              1             0             1 
     9 t_2_2                 67.0329             0               
    10 s_1_3        *              0             0             1 
    11 t_1_3                 23.1995             0               
    12 s_2_3        *              1             0             1 
    13 t_2_3                 23.1995             0               
    14 s_1_4        *              1             0             1 
    15 t_1_4                 66.2691             0               
    16 s_2_4        *              0             0             1 
    17 t_2_4                 53.4876             0               
    18 s_1_5        *              0             0             1 
    19 t_1_5                 46.3651             0               
    20 s_2_5        *              1             0             1 
    21 t_2_5                 53.4876             0               
    22 s_1_6        *              1             0             1 
    23 t_1_6                 84.0259             0               
    24 s_2_6        *              0             0             1 
    25 t_2_6                 84.0259             0               
    26 s_1_7        *              1             0             1 
    27 t_1_7                       0             0               
    28 s_2_7        *              0             0             1 
    29 t_2_7                 1021.91             0               
    30 s_1_8        *              0             0             1 
    31 t_1_8                       0             0               
    32 s_2_8        *              1             0             1 
    33 t_2_8                       0             0               
    34 r_1_1_2      *              1             0             1 
    35 u_1_1_2      *              0             0             1 
    36 r_2_1_2      *              1             0             1 
    37 u_2_1_2      *              0             0             1 
    38 r_1_1_3      *              1             0             1 
    39 u_1_1_3      *              0             0             1 
    40 r_2_1_3      *              1             0             1 
    41 u_2_1_3      *              0             0             1 
    42 r_1_1_4      *              0             0             1 
    43 u_1_1_4      *              0             0             1 
    44 r_2_1_4      *              1             0             1 
    45 u_2_1_4      *              0             0             1 
    46 r_1_1_5      *              1             0             1 
    47 u_1_1_5      *              0             0             1 
    48 r_2_1_5      *              1             0             1 
    49 u_2_1_5      *              0             0             1 
    50 r_1_1_8      *              1             0             1 
    51 u_1_1_8      *              0             0             1 
    52 r_2_1_8      *              1             0             1 
    53 u_2_1_8      *              0             0             1 
    54 r_1_2_3      *              1             0             1 
    55 u_1_2_3      *              0             0             1 
    56 r_2_2_3      *              0             0             1 
    57 u_2_2_3      *              1             0             1 
    58 r_1_2_4      *              1             0             1 
    59 u_1_2_4      *              0             0             1 
    60 r_2_2_4      *              1             0             1 
    61 u_2_2_4      *              0             0             1 
    62 r_1_2_5      *              1             0             1 
    63 u_1_2_5      *              0             0             1 
    64 r_2_2_5      *              0             0             1 
    65 u_2_2_5      *              1             0             1 
    66 r_1_2_7      *              1             0             1 
    67 u_1_2_7      *              0             0             1 
    68 r_2_2_7      *              1             0             1 
    69 u_2_2_7      *              0             0             1 
    70 r_1_3_5      *              1             0             1 
    71 u_1_3_5      *              0             0             1 
    72 r_2_3_5      *              0             0             1 
    73 u_2_3_5      *              0             0             1 
    74 r_1_3_7      *              1             0             1 
    75 u_1_3_7      *              0             0             1 
    76 r_2_3_7      *              1             0             1 
    77 u_2_3_7      *              0             0             1 
    78 r_1_4_5      *              1             0             1 
    79 u_1_4_5      *              0             0             1 
    80 r_2_4_5      *              1             0             1 
    81 u_2_4_5      *              0             0             1 
    82 r_1_4_7      *              0             0             1 
    83 u_1_4_7      *              1             0             1 
    84 r_2_4_7      *              1             0             1 
    85 u_2_4_7      *              0             0             1 
    86 r_1_7_8      *              1             0             1 
    87 u_1_7_8      *              0             0             1 
    88 r_2_7_8      *              1             0             1 
    89 u_2_7_8      *              0             0             1 

Integer feasibility conditions:

KKT.PE: max.abs.err = 4.55e-13 on row 226
        max.rel.err = 7.52e-17 on row 226
        High quality

KKT.PB: max.abs.err = 3.91e-14 on row 202
        max.rel.err = 1.25e-15 on row 202
        High quality

End of output
